100
0   502   505
1   501   503
2   501   504
3   504   504
4   504   502
5   251   254
6   251   254
7   254   255
8   251   254
9   253   252
10   130   126
11   128   126
12   126   126
13   130   126
14   129   127
15   66   63
16   67   64
17   66   66
18   67   64
19   65   64
20   33   35
21   34   32
22   35   36
23   32   33
24   34   32
25   18   20
26   19   20
27   17   18
28   18   20
29   19   20
30   11   12
31   8   11
32   9   11
33   11   9
34   10   12
35   6   4
36   7   8
37   4   5
38   8   7
39   6   7
40   2   5
41   2   4
42   6   6
43   6   5
44   3   3
45   5   2
46   1   2
47   5   5
48   2   4
49   5   3
50   5   3
51   4   3
52   5   5
53   1   4
54   5   2
55   5   5
56   2   4
57   1   4
58   3   5
59   5   2
60   5   4
61   4   3
62   4   3
63   1   5
64   5   5
65   5   3
66   4   5
67   1   2
68   2   5
69   5   2
70   1   5
71   3   1
72   1   1
73   1   4
74   1   3
75   2   3
76   1   5
77   2   3
78   3   1
79   2   2
80   3   5
81   2   3
82   3   4
83   3   4
84   4   1
85   1   3
86   4   3
87   4   2
88   3   1
89   3   5
90   2   5
91   4   1
92   2   1
93   4   2
94   1   2
95   4   5
96   4   5
97   2   5
98   4   2
99   5   1
1000
